GLPSOL: GLPK LP/MIP Solver, v4.57
Parameter(s) specified in the command line:
 --model c4gen7.mod
Reading model section from c4gen7.mod...
Reading data section from c4gen7.mod...
1430 lines were read
Generating first...
Generating second...
Generating third...
Generating cr0...
Generating cr1...
Generating cr2...
Generating cr3...
Generating cr4...
Generating cr5...
Generating cr6...
Generating cr7...
Generating cr8...
Generating cr9...
Generating cr10...
Generating cr11...
Generating cr12...
Generating cr13...
Generating cr14...
Generating cr15...
Generating cr16...
Generating cr17...
Generating cr18...
Generating cr19...
Generating cr20...
Generating cr21...
Generating cr22...
Generating cr23...
Generating cr24...
Generating cr25...
Generating cr26...
Generating cr27...
Generating cr28...
Generating cr29...
Generating ct0...
Generating ct1...
Generating ct2...
Generating ct3...
Generating ct4...
Generating ct5...
Generating ct6...
Generating ct7...
Generating ct8...
Generating ct9...
Generating ct10...
Generating ct12...
Generating ct13...
Generating ct14...
Generating ct15...
Generating ct17...
Generating ct18...
Generating ct19...
Generating ct20...
Generating ct21...
Generating ct22...
Generating ct23...
Generating ct24...
Generating ct25...
Generating ct26...
Generating ct27...
Generating ct28...
Generating ct29...
Generating obj...
Model has been successfully generated
GLPK Integer Optimizer, v4.57
147 rows, 25200 columns, 124980 non-zeros
25200 integer variables, all of which are binary
Preprocessing...
86 rows, 7845 columns, 23535 non-zeros
7845 integer variables, all of which are binary
Scaling...
 A: min|aij| =  1.000e+00  max|aij| =  1.000e+00  ratio =  1.000e+00
Problem data seem to be well scaled
Constructing initial basis...
Size of triangular part is 86
Solving LP relaxation...
GLPK Simplex Optimizer, v4.57
86 rows, 7845 columns, 23535 non-zeros
      0: obj =   2.800000000e+01 inf =   5.100e+01 (3)
    120: obj =   2.800000000e+01 inf =   0.000e+00 (0)
OPTIMAL LP SOLUTION FOUND
Integer optimization begins...
+   120: mip =     not found yet >=              -inf        (1; 0)
+   120: >>>>>   2.800000000e+01 >=   2.800000000e+01   0.0% (1; 0)
+   120: mip =   2.800000000e+01 >=     tree is empty   0.0% (0; 1)
INTEGER OPTIMAL SOLUTION FOUND
Time used:   0.2 secs
Memory used: 38.9 Mb (40746443 bytes)
result: c:0 r:8 t:4 time:0
result: c:1 r:28 t:26 time:0
result: c:2 r:3 t:14 time:0
result: c:3 r:2 t:3 time:0
result: c:4 r:0 t:11 time:0
result: c:5 r:9 t:12 time:0
result: c:6 r:4 t:2 time:0
result: c:7 r:27 t:27 time:0
result: c:8 r:5 t:8 time:0
result: c:9 r:1 t:20 time:0
result: c:10 r:15 t:16 time:0
result: c:11 r:10 t:5 time:0
result: c:12 r:18 t:15 time:0
result: c:13 r:19 t:9 time:0
result: c:14 r:7 t:10 time:0
result: c:15 r:20 t:21 time:0
result: c:16 r:21 t:17 time:0
result: c:17 r:22 t:18 time:0
result: c:18 r:14 t:13 time:0
result: c:19 r:23 t:22 time:0
result: c:20 r:16 t:7 time:0
result: c:21 r:6 t:24 time:0
result: c:22 r:12 t:25 time:0
result: c:23 r:17 t:0 time:0
result: c:24 r:11 t:23 time:0
result: c:25 r:24 t:1 time:0
result: c:26 r:25 t:28 time:0
result: c:27 r:26 t:6 time:0
Model has been successfully processed

Timeslot used: 1
